12484 0 1 100 115 136 155 173 199 229 260 286
12569 0 2 100 113 143 178 214
16846 0 1 120 135 156 175 193 219 249 280 306
16965 0 3 160 172 198 229 260
25485 0 3 180 192 218 249 280
25548 1 1 400 421 452 482 508 526 545 566 586
45654 1 2 500 531 566 596 614
58646 1 3 650 676 707 733 750
65156 1 2 780 811 846 876 894
96413 1 3 900 926 957 983 1000